NAME          COPTPROB
OBJSENSE
  MIN
ROWS
 N  __OBJ___
 L  C61     
 L  C66     
 L  C89     
 L  C110    
 L  C126    
 L  C138    
COLUMNS
    MARKER    'MARKER'                 'INTORG'
    x130      __OBJ___  117
    x130      C126      -1
    x130      C138      -1
    x1210     __OBJ___  153
    x1210     C66       -1
    x1221     __OBJ___  35
    x1221     C126      -1
    x1506     __OBJ___  214
    x1506     C66       -1
    x1506     C138      -1
    x1895     __OBJ___  48
    x1895     C61       -1
    x1895     C126      -1
    x2040     __OBJ___  267
    x2040     C66       -1
    x2040     C89       -1
    x2394     __OBJ___  184
    x2394     C89       -1
    x2394     C110      -1
    x2574     __OBJ___  96
    x2574     C138      -1
    x2993     __OBJ___  16
    x2993     C61       -1
    x2993     C110      -1
    MARKER    'MARKER'                 'INTEND'
RHS
    RHS       __OBJ___  -3776
    RHS       C61       -1
    RHS       C66       -1
    RHS       C89       -1
    RHS       C110      -1
    RHS       C126      -1
    RHS       C138      -1
BOUNDS
 UP BOUND     x130      1
 UP BOUND     x1210     1
 UP BOUND     x1221     1
 UP BOUND     x1506     1
 UP BOUND     x1895     1
 UP BOUND     x2040     1
 UP BOUND     x2394     1
 UP BOUND     x2574     1
 UP BOUND     x2993     1
ENDATA
